data/lp_files/pEFS/35_6.lp
\ Model foo
\ LP format - for model browsing. Use MPS format to capture full model detail.
Minimize
  z
Subject To
 allocateEach[1]: x[1,1] + x[2,1] = 1
 allocateEach[2]: x[1,2] + x[2,2] = 1
 allocateEach[3]: x[1,3] + x[2,3] = 1
 allocateEach[4]: x[1,4] + x[2,4] = 1
 allocateEach[5]: x[1,5] + x[2,5] = 1
 allocateEach[6]: x[1,6] + x[2,6] = 1
 allocateEach[7]: x[1,7] + x[2,7] = 1
 allocateEach[8]: x[1,8] + x[2,8] = 1
 allocateEach[9]: x[1,9] + x[2,9] = 1
 allocateEach[10]: x[1,10] + x[2,10] = 1
 allocateEach[11]: x[1,11] + x[2,11] = 1
 allocateEach[12]: x[1,12] + x[2,12] = 1
 allocateEach[13]: x[1,13] + x[2,13] = 1
 allocateEach[14]: x[1,14] + x[2,14] = 1
 allocateEach[15]: x[1,15] + x[2,15] = 1
 allocateAllCash: cashProportion[1] + cashProportion[2] = 1
 findWorstP[1,2]: z + 0.0492465281197676 cashProportion[1]
   - 0.0492465281197676 cashProportion[2] + 0.0666674874421353 x[1,1]
   + 0.00267162415049739 x[1,2] + 0.0497636166650251 x[1,3]
   + 0.0878681177976953 x[1,4] + 0.077341672412095 x[1,5]
   + 0.1150275780557471 x[1,6] + 0.0730079779375554 x[1,7]
   + 0.0846178469417906 x[1,8] + 0.0183320200925835 x[1,9]
   + 0.0816999901506944 x[1,10] + 0.0114621294198759 x[1,11]
   + 0.1024327784891165 x[1,12] + 0.0389663153747661 x[1,13]
   + 0.0722077218556092 x[1,14] + 0.0686865950950458 x[1,15]
   - 0.0666674874421353 x[2,1] - 0.00267162415049739 x[2,2]
   - 0.0497636166650251 x[2,3] - 0.0878681177976953 x[2,4]
   - 0.077341672412095 x[2,5] - 0.1150275780557471 x[2,6]
   - 0.0730079779375554 x[2,7] - 0.0846178469417906 x[2,8]
   - 0.0183320200925835 x[2,9] - 0.0816999901506944 x[2,10]
   - 0.0114621294198759 x[2,11] - 0.1024327784891165 x[2,12]
   - 0.0389663153747661 x[2,13] - 0.0722077218556092 x[2,14]
   - 0.0686865950950458 x[2,15] >= 0
 findWorstP[2,1]: z - 0.0496715468961492 cashProportion[1]
   + 0.0496715468961492 cashProportion[2] - 0.0814240832495126 x[1,1]
   - 0.1071539445417179 x[1,2] - 0.0974307392367967 x[1,3]
   - 0.054911895093693 x[1,4] - 0.0430900669324094 x[1,5]
   - 0.123495883470551 x[1,6] - 0.1151138099318258 x[1,7]
   - 0.0271703361521936 x[1,8] - 0.0828273044493288 x[1,9]
   - 7.3265531671820095e-04 x[1,10] - 0.0730295918240634 x[1,11]
   - 0.0122440363099008 x[1,12] - 0.00428417091979287 x[1,13]
   - 0.0404698928336376 x[1,14] - 0.0869500428417092 x[1,15]
   + 0.0814240832495126 x[2,1] + 0.1071539445417179 x[2,2]
   + 0.0974307392367967 x[2,3] + 0.054911895093693 x[2,4]
   + 0.0430900669324094 x[2,5] + 0.123495883470551 x[2,6]
   + 0.1151138099318258 x[2,7] + 0.0271703361521936 x[2,8]
   + 0.0828273044493288 x[2,9] + 7.3265531671820095e-04 x[2,10]
   + 0.0730295918240634 x[2,11] + 0.0122440363099008 x[2,12]
   + 0.00428417091979287 x[2,13] + 0.0404698928336376 x[2,14]
   + 0.0869500428417092 x[2,15] >= 0
Bounds
 z <= 1
 -infinity <= cashProportion[1] <= 1
 -infinity <= cashProportion[2] <= 1
Binaries
 x[1,1] x[1,2] x[1,3] x[1,4] x[1,5] x[1,6] x[1,7] x[1,8] x[1,9] x[1,10]
 x[1,11] x[1,12] x[1,13] x[1,14] x[1,15] x[2,1] x[2,2] x[2,3] x[2,4] x[2,5]
 x[2,6] x[2,7] x[2,8] x[2,9] x[2,10] x[2,11] x[2,12] x[2,13] x[2,14]
 x[2,15]
End
