data/mps_files/pEFS/35_6.mps
NAME foo
ROWS
 N  OBJ
 E  allocateEach[1]
 E  allocateEach[2]
 E  allocateEach[3]
 E  allocateEach[4]
 E  allocateEach[5]
 E  allocateEach[6]
 E  allocateEach[7]
 E  allocateEach[8]
 E  allocateEach[9]
 E  allocateEach[10]
 E  allocateEach[11]
 E  allocateEach[12]
 E  allocateEach[13]
 E  allocateEach[14]
 E  allocateEach[15]
 E  allocateAllCash
 G  findWorstP[1,2]
 G  findWorstP[2,1]
COLUMNS
    z         OBJ       1
    z         findWorstP[1,2]  1
    z         findWorstP[2,1]  1
    cashProportion[1]  allocateAllCash  1
    cashProportion[1]  findWorstP[1,2]  4.9246528119767569e-02
    cashProportion[1]  findWorstP[2,1]  -4.9671546896149221e-02
    cashProportion[2]  allocateAllCash  1
    cashProportion[2]  findWorstP[1,2]  -4.9246528119767569e-02
    cashProportion[2]  findWorstP[2,1]  4.9671546896149221e-02
    MARKER    'MARKER'                 'INTORG'
    x[1,1]    allocateEach[1]  1
    x[1,1]    findWorstP[1,2]  6.6667487442135340e-02
    x[1,1]    findWorstP[2,1]  -0.0814240832495126
    x[1,2]    allocateEach[2]  1
    x[1,2]    findWorstP[1,2]  0.00267162415049739
    x[1,2]    findWorstP[2,1]  -1.0715394454171789e-01
    x[1,3]    allocateEach[3]  1
    x[1,3]    findWorstP[1,2]  4.9763616665025122e-02
    x[1,3]    findWorstP[2,1]  -9.7430739236796682e-02
    x[1,4]    allocateEach[4]  1
    x[1,4]    findWorstP[1,2]  8.7868117797695280e-02
    x[1,4]    findWorstP[2,1]  -5.4911895093692958e-02
    x[1,5]    allocateEach[5]  1
    x[1,5]    findWorstP[1,2]  7.7341672412094956e-02
    x[1,5]    findWorstP[2,1]  -4.3090066932409445e-02
    x[1,6]    allocateEach[6]  1
    x[1,6]    findWorstP[1,2]  1.1502757805574709e-01
    x[1,6]    findWorstP[2,1]  -1.2349588347055099e-01
    x[1,7]    allocateEach[7]  1
    x[1,7]    findWorstP[1,2]  7.3007977937555410e-02
    x[1,7]    findWorstP[2,1]  -1.1511380993182581e-01
    x[1,8]    allocateEach[8]  1
    x[1,8]    findWorstP[1,2]  8.4617846941790614e-02
    x[1,8]    findWorstP[2,1]  -2.7170336152193619e-02
    x[1,9]    allocateEach[9]  1
    x[1,9]    findWorstP[1,2]  1.8332020092583477e-02
    x[1,9]    findWorstP[2,1]  -8.2827304449328829e-02
    x[1,10]   allocateEach[10]  1
    x[1,10]   findWorstP[1,2]  8.1699990150694388e-02
    x[1,10]   findWorstP[2,1]  -0.000732655316718201
    x[1,11]   allocateEach[11]  1
    x[1,11]   findWorstP[1,2]  1.1462129419875901e-02
    x[1,11]   findWorstP[2,1]  -7.3029591824063378e-02
    x[1,12]   allocateEach[12]  1
    x[1,12]   findWorstP[1,2]  1.0243277848911653e-01
    x[1,12]   findWorstP[2,1]  -1.2244036309900780e-02
    x[1,13]   allocateEach[13]  1
    x[1,13]   findWorstP[1,2]  3.8966315374766088e-02
    x[1,13]   findWorstP[2,1]  -0.00428417091979287
    x[1,14]   allocateEach[14]  1
    x[1,14]   findWorstP[1,2]  0.0722077218556092
    x[1,14]   findWorstP[2,1]  -4.0469892833637576e-02
    x[1,15]   allocateEach[15]  1
    x[1,15]   findWorstP[1,2]  6.8686595095045808e-02
    x[1,15]   findWorstP[2,1]  -8.6950042841709207e-02
    x[2,1]    allocateEach[1]  1
    x[2,1]    findWorstP[1,2]  -6.6667487442135340e-02
    x[2,1]    findWorstP[2,1]  0.0814240832495126
    x[2,2]    allocateEach[2]  1
    x[2,2]    findWorstP[1,2]  -0.00267162415049739
    x[2,2]    findWorstP[2,1]  1.0715394454171789e-01
    x[2,3]    allocateEach[3]  1
    x[2,3]    findWorstP[1,2]  -4.9763616665025122e-02
    x[2,3]    findWorstP[2,1]  9.7430739236796682e-02
    x[2,4]    allocateEach[4]  1
    x[2,4]    findWorstP[1,2]  -8.7868117797695280e-02
    x[2,4]    findWorstP[2,1]  5.4911895093692958e-02
    x[2,5]    allocateEach[5]  1
    x[2,5]    findWorstP[1,2]  -7.7341672412094956e-02
    x[2,5]    findWorstP[2,1]  4.3090066932409445e-02
    x[2,6]    allocateEach[6]  1
    x[2,6]    findWorstP[1,2]  -1.1502757805574709e-01
    x[2,6]    findWorstP[2,1]  1.2349588347055099e-01
    x[2,7]    allocateEach[7]  1
    x[2,7]    findWorstP[1,2]  -7.3007977937555410e-02
    x[2,7]    findWorstP[2,1]  1.1511380993182581e-01
    x[2,8]    allocateEach[8]  1
    x[2,8]    findWorstP[1,2]  -8.4617846941790614e-02
    x[2,8]    findWorstP[2,1]  2.7170336152193619e-02
    x[2,9]    allocateEach[9]  1
    x[2,9]    findWorstP[1,2]  -1.8332020092583477e-02
    x[2,9]    findWorstP[2,1]  8.2827304449328829e-02
    x[2,10]   allocateEach[10]  1
    x[2,10]   findWorstP[1,2]  -8.1699990150694388e-02
    x[2,10]   findWorstP[2,1]  0.000732655316718201
    x[2,11]   allocateEach[11]  1
    x[2,11]   findWorstP[1,2]  -1.1462129419875901e-02
    x[2,11]   findWorstP[2,1]  7.3029591824063378e-02
    x[2,12]   allocateEach[12]  1
    x[2,12]   findWorstP[1,2]  -1.0243277848911653e-01
    x[2,12]   findWorstP[2,1]  1.2244036309900780e-02
    x[2,13]   allocateEach[13]  1
    x[2,13]   findWorstP[1,2]  -3.8966315374766088e-02
    x[2,13]   findWorstP[2,1]  0.00428417091979287
    x[2,14]   allocateEach[14]  1
    x[2,14]   findWorstP[1,2]  -0.0722077218556092
    x[2,14]   findWorstP[2,1]  4.0469892833637576e-02
    x[2,15]   allocateEach[15]  1
    x[2,15]   findWorstP[1,2]  -6.8686595095045808e-02
    x[2,15]   findWorstP[2,1]  8.6950042841709207e-02
    MARKER    'MARKER'                 'INTEND'
RHS
    RHS1      allocateEach[1]  1
    RHS1      allocateEach[2]  1
    RHS1      allocateEach[3]  1
    RHS1      allocateEach[4]  1
    RHS1      allocateEach[5]  1
    RHS1      allocateEach[6]  1
    RHS1      allocateEach[7]  1
    RHS1      allocateEach[8]  1
    RHS1      allocateEach[9]  1
    RHS1      allocateEach[10]  1
    RHS1      allocateEach[11]  1
    RHS1      allocateEach[12]  1
    RHS1      allocateEach[13]  1
    RHS1      allocateEach[14]  1
    RHS1      allocateEach[15]  1
    RHS1      allocateAllCash  1
BOUNDS
 UP BND1      z         1
 MI BND1      cashProportion[1]
 UP BND1      cashProportion[1]  1
 MI BND1      cashProportion[2]
 UP BND1      cashProportion[2]  1
 BV BND1      x[1,1]  
 BV BND1      x[1,2]  
 BV BND1      x[1,3]  
 BV BND1      x[1,4]  
 BV BND1      x[1,5]  
 BV BND1      x[1,6]  
 BV BND1      x[1,7]  
 BV BND1      x[1,8]  
 BV BND1      x[1,9]  
 BV BND1      x[1,10] 
 BV BND1      x[1,11] 
 BV BND1      x[1,12] 
 BV BND1      x[1,13] 
 BV BND1      x[1,14] 
 BV BND1      x[1,15] 
 BV BND1      x[2,1]  
 BV BND1      x[2,2]  
 BV BND1      x[2,3]  
 BV BND1      x[2,4]  
 BV BND1      x[2,5]  
 BV BND1      x[2,6]  
 BV BND1      x[2,7]  
 BV BND1      x[2,8]  
 BV BND1      x[2,9]  
 BV BND1      x[2,10] 
 BV BND1      x[2,11] 
 BV BND1      x[2,12] 
 BV BND1      x[2,13] 
 BV BND1      x[2,14] 
 BV BND1      x[2,15] 
ENDATA
